QPLIB_3705
QBB
maximize
378 # number of variables
728 # number of quadratic terms in objective
46 1 -4.0
166 1 4.0
175 1 4.0
176 1 -4.0
26 2 4.0
179 2 -4.0
307 2 4.0
338 2 -4.0
4 3 -4.0
258 3 4.0
310 3 4.0
343 3 -4.0
10 4 4.0
232 4 4.0
233 4 -4.0
34 5 -4.0
186 5 -4.0
202 5 4.0
203 5 4.0
135 6 -4.0
179 6 -4.0
309 6 4.0
342 6 4.0
41 7 -4.0
172 7 -4.0
187 7 4.0
220 7 4.0
9 8 4.0
69 8 4.0
266 8 -4.0
296 8 -4.0
137 9 -4.0
139 9 -4.0
295 9 4.0
258 10 4.0
374 10 -4.0
377 10 -4.0
12 11 -4.0
142 11 -4.0
173 11 4.0
349 11 4.0
27 12 -4.0
87 12 4.0
88 12 4.0
14 13 4.0
242 13 -4.0
270 13 -4.0
356 13 4.0
136 14 -4.0
137 14 -4.0
324 14 4.0
16 15 4.0
191 15 -4.0
209 15 4.0
272 15 -4.0
52 16 -4.0
62 16 4.0
356 16 -4.0
81 17 4.0
100 17 4.0
340 17 -4.0
372 17 -4.0
19 18 4.0
135 18 -4.0
216 18 4.0
313 18 -4.0
340 19 4.0
341 19 -4.0
344 19 -4.0
21 20 4.0
138 20 -4.0
189 20 -4.0
353 20 4.0
51 21 -4.0
79 21 -4.0
321 21 4.0
23 22 -4.0
53 22 4.0
244 22 -4.0
353 22 4.0
68 23 4.0
143 23 -4.0
323 23 4.0
174 24 -4.0
225 24 4.0
245 24 -4.0
325 24 4.0
209 25 -4.0
225 25 4.0
249 25 4.0
274 25 -4.0
92 26 4.0
230 26 -4.0
310 26 -4.0
28 27 4.0
288 27 4.0
289 27 -4.0
66 28 -4.0
87 28 -4.0
203 28 4.0
59 29 -4.0
74 29 -4.0
136 29 4.0
352 29 4.0
192 30 -4.0
224 30 -4.0
247 30 4.0
358 30 4.0
63 31 4.0
191 31 -4.0
247 31 4.0
301 31 -4.0
33 32 -4.0
35 32 4.0
315 32 4.0
318 32 -4.0
78 33 -4.0
94 33 4.0
262 33 4.0
35 34 4.0
67 34 4.0
290 34 -4.0
73 35 -4.0
262 35 -4.0
67 36 -4.0
68 36 4.0
137 36 4.0
142 36 -4.0
75 37 4.0
164 37 4.0
245 37 -4.0
324 37 -4.0
54 38 4.0
174 38 -4.0
273 38 4.0
332 38 -4.0
40 39 -4.0
42 39 4.0
346 39 4.0
349 39 -4.0
72 40 -4.0
239 40 4.0
314 40 4.0
42 41 4.0
60 41 4.0
263 41 -4.0
239 42 -4.0
240 42 -4.0
59 43 4.0
60 43 -4.0
139 43 4.0
143 43 -4.0
272 44 -4.0
295 44 -4.0
323 44 4.0
358 44 4.0
192 45 -4.0
298 45 4.0
300 45 4.0
364 45 -4.0
55 46 4.0
251 46 -4.0
300 46 4.0
48 47 4.0
231 47 -4.0
341 47 4.0
374 47 -4.0
120 48 4.0
213 48 -4.0
279 48 -4.0
72 49 4.0
172 49 -4.0
200 49 -4.0
220 49 4.0
65 50 -4.0
108 50 4.0
220 50 -4.0
345 50 4.0
138 51 4.0
240 51 4.0
350 51 -4.0
269 52 -4.0
294 52 4.0
325 52 4.0
84 53 4.0
206 53 -4.0
325 53 -4.0
98 54 -4.0
141 54 -4.0
302 54 4.0
141 55 -4.0
167 55 4.0
177 55 -4.0
116 56 4.0
195 56 -4.0
253 56 -4.0
309 56 4.0
65 57 4.0
185 57 -4.0
186 57 -4.0
202 57 4.0
111 58 4.0
113 58 4.0
185 58 -4.0
202 58 -4.0
73 59 4.0
319 59 -4.0
221 60 4.0
264 60 -4.0
62 61 4.0
165 61 -4.0
176 61 -4.0
362 61 4.0
103 62 -4.0
130 62 -4.0
144 63 -4.0
226 63 -4.0
275 63 4.0
110 64 4.0
178 64 -4.0
229 64 -4.0
281 64 4.0
112 66 -4.0
131 66 4.0
142 66 4.0
88 67 4.0
241 67 -4.0
115 68 -4.0
354 68 -4.0
268 69 -4.0
272 69 -4.0
326 69 4.0
98 70 4.0
145 70 4.0
166 70 -4.0
330 70 -4.0
106 71 4.0
168 71 -4.0
213 71 -4.0
255 71 4.0
107 73 -4.0
129 73 4.0
96 74 4.0
203 74 4.0
222 74 -4.0
205 75 -4.0
354 75 -4.0
357 75 4.0
148 76 4.0
159 76 -4.0
226 76 4.0
299 76 -4.0
161 77 -4.0
195 77 -4.0
232 77 4.0
373 77 4.0
346 78 4.0
102 79 4.0
187 79 4.0
204 79 -4.0
85 80 -4.0
151 80 4.0
155 80 -4.0
248 80 4.0
161 81 4.0
178 81 -4.0
179 81 -4.0
288 82 -4.0
315 82 4.0
124 83 -4.0
315 83 4.0
205 84 4.0
270 84 -4.0
293 84 -4.0
130 85 4.0
273 85 4.0
274 85 -4.0
128 86 -4.0
288 86 4.0
288 87 4.0
289 87 -4.0
317 88 -4.0
320 88 -4.0
223 89 4.0
267 89 -4.0
296 89 -4.0
356 89 4.0
192 90 -4.0
225 90 4.0
246 90 4.0
359 90 -4.0
92 91 -4.0
93 91 4.0
169 91 -4.0
180 91 4.0
116 92 4.0
235 92 -4.0
162 93 4.0
170 93 -4.0
181 93 -4.0
289 94 -4.0
96 95 4.0
221 95 -4.0
262 95 4.0
316 95 -4.0
112 96 -4.0
351 96 -4.0
109 97 4.0
174 97 -4.0
209 97 4.0
326 97 -4.0
209 98 4.0
210 98 -4.0
106 99 4.0
181 99 4.0
196 99 -4.0
373 99 -4.0
120 100 4.0
181 100 -4.0
257 100 -4.0
102 101 4.0
239 101 4.0
240 101 -4.0
347 101 -4.0
107 102 -4.0
173 102 -4.0
126 103 -4.0
165 103 4.0
296 103 4.0
191 104 4.0
192 104 -4.0
300 104 -4.0
363 104 4.0
363 105 4.0
364 105 -4.0
366 105 4.0
367 105 -4.0
339 106 -4.0
341 106 -4.0
108 107 4.0
172 107 4.0
219 108 -4.0
348 108 -4.0
270 109 4.0
271 109 -4.0
297 109 -4.0
180 110 4.0
308 110 -4.0
311 110 -4.0
219 111 -4.0
113 112 4.0
186 112 4.0
201 113 -4.0
317 113 -4.0
115 114 4.0
188 114 4.0
189 114 -4.0
205 114 -4.0
129 115 -4.0
351 115 4.0
280 116 -4.0
282 116 -4.0
118 117 4.0
204 117 4.0
205 117 -4.0
223 117 -4.0
131 118 -4.0
320 118 4.0
352 118 -4.0
122 119 4.0
208 119 4.0
357 119 -4.0
360 119 -4.0
254 120 -4.0
256 120 -4.0
222 121 4.0
223 121 -4.0
243 121 -4.0
291 121 4.0
323 122 4.0
324 122 -4.0
326 122 -4.0
226 123 4.0
360 123 4.0
361 123 -4.0
362 123 -4.0
239 124 4.0
345 124 4.0
347 124 -4.0
241 125 4.0
243 125 -4.0
265 125 4.0
267 125 -4.0
246 126 4.0
294 126 4.0
295 126 -4.0
248 127 4.0
327 127 4.0
328 127 -4.0
330 127 -4.0
262 128 4.0
314 128 4.0
316 128 -4.0
265 129 4.0
350 129 -4.0
297 130 4.0
299 130 -4.0
291 131 4.0
319 131 -4.0
133 132 4.0
313 132 -4.0
134 133 -4.0
376 133 4.0
377 133 -4.0
378 134 4.0
340 135 4.0
343 135 -4.0
264 136 -4.0
353 136 -4.0
241 137 -4.0
140 138 -4.0
142 138 -4.0
222 139 -4.0
266 139 -4.0
204 140 -4.0
242 140 -4.0
266 140 -4.0
193 141 -4.0
331 141 4.0
188 143 -4.0
242 143 -4.0
193 144 -4.0
211 144 -4.0
363 144 4.0
211 145 -4.0
227 145 -4.0
249 145 -4.0
149 146 -4.0
378 146 -4.0
190 147 4.0
224 147 -4.0
355 147 -4.0
358 147 -4.0
227 148 -4.0
250 148 -4.0
274 148 -4.0
150 149 -4.0
197 149 4.0
215 149 -4.0
153 150 -4.0
250 151 -4.0
276 151 -4.0
301 151 -4.0
161 152 -4.0
168 152 -4.0
227 152 4.0
276 152 -4.0
154 153 -4.0
182 153 4.0
236 153 -4.0
157 154 -4.0
276 155 -4.0
303 155 -4.0
332 155 -4.0
168 156 -4.0
178 156 -4.0
211 156 4.0
303 156 -4.0
158 157 -4.0
169 157 4.0
259 157 -4.0
162 158 -4.0
303 159 -4.0
334 159 -4.0
364 159 -4.0
178 160 -4.0
193 160 4.0
195 160 -4.0
334 160 -4.0
368 161 -4.0
163 162 -4.0
284 162 -4.0
170 163 -4.0
165 164 -4.0
207 164 -4.0
271 164 -4.0
191 165 -4.0
334 166 -4.0
366 166 -4.0
195 167 -4.0
213 167 -4.0
366 167 -4.0
230 168 -4.0
183 169 -4.0
196 169 -4.0
171 170 -4.0
376 170 -4.0
183 171 -4.0
219 172 -4.0
188 173 -4.0
264 173 -4.0
176 174 -4.0
210 175 -4.0
329 175 4.0
331 175 4.0
331 176 -4.0
213 177 -4.0
229 177 -4.0
367 177 4.0
180 179 4.0
214 180 -4.0
182 181 -4.0
198 182 -4.0
214 182 -4.0
184 183 -4.0
344 183 -4.0
198 184 -4.0
201 186 -4.0
318 187 4.0
351 187 -4.0
263 188 -4.0
190 189 -4.0
268 189 -4.0
244 190 -4.0
322 190 -4.0
194 193 -4.0
229 194 -4.0
253 194 -4.0
335 194 4.0
197 196 -4.0
234 196 -4.0
216 197 -4.0
235 197 -4.0
199 198 -4.0
377 198 -4.0
216 199 -4.0
201 200 -4.0
287 201 -4.0
317 202 4.0
320 203 -4.0
290 204 -4.0
207 206 -4.0
208 206 4.0
244 206 -4.0
210 207 -4.0
273 207 4.0
210 208 -4.0
247 208 4.0
212 211 -4.0
253 212 -4.0
279 212 -4.0
304 212 4.0
215 214 -4.0
256 214 -4.0
237 215 -4.0
257 215 -4.0
217 216 -4.0
237 217 -4.0
219 218 -4.0
346 218 -4.0
348 220 4.0
290 221 -4.0
348 221 -4.0
320 222 -4.0
323 223 -4.0
270 224 -4.0
360 224 4.0
226 225 4.0
228 227 -4.0
277 228 4.0
279 228 -4.0
306 228 -4.0
231 229 -4.0
233 230 -4.0
371 230 -4.0
233 231 -4.0
306 231 -4.0
234 232 4.0
339 232 -4.0
234 233 -4.0
283 234 -4.0
236 235 -4.0
282 235 -4.0
260 236 -4.0
283 236 -4.0
238 237 -4.0
258 237 4.0
260 238 -4.0
263 240 -4.0
351 241 -4.0
294 242 4.0
268 243 4.0
294 243 -4.0
246 244 4.0
296 245 -4.0
327 245 4.0
327 246 -4.0
248 247 4.0
249 248 -4.0
275 249 -4.0
252 250 -4.0
368 250 -4.0
252 251 -4.0
275 251 -4.0
368 251 -4.0
306 252 -4.0
337 252 -4.0
254 253 -4.0
309 254 -4.0
337 254 -4.0
256 255 4.0
308 255 -4.0
340 255 4.0
312 256 -4.0
259 257 -4.0
311 257 -4.0
285 258 -4.0
285 259 -4.0
312 259 -4.0
261 260 -4.0
343 260 4.0
285 261 -4.0
265 263 4.0
292 264 4.0
292 265 -4.0
269 266 4.0
269 267 -4.0
292 267 -4.0
271 268 -4.0
271 269 -4.0
297 272 4.0
360 273 4.0
302 274 -4.0
277 275 -4.0
278 276 -4.0
278 277 -4.0
302 277 -4.0
337 278 -4.0
370 278 -4.0
280 279 -4.0
281 280 -4.0
370 280 -4.0
282 281 4.0
310 281 4.0
342 282 -4.0
284 283 -4.0
341 283 -4.0
313 284 -4.0
342 284 -4.0
286 285 -4.0
313 286 -4.0
289 287 -4.0
291 290 4.0
321 291 -4.0
293 292 -4.0
295 293 -4.0
321 293 -4.0
329 297 4.0
299 298 4.0
327 298 4.0
361 298 -4.0
301 299 -4.0
333 300 4.0
333 301 -4.0
304 302 -4.0
305 303 -4.0
305 304 -4.0
333 304 -4.0
307 305 -4.0
370 305 -4.0
308 306 -4.0
308 307 -4.0
336 307 -4.0
311 309 4.0
375 310 4.0
375 311 -4.0
374 312 -4.0
376 312 -4.0
316 315 4.0
318 316 -4.0
319 317 -4.0
319 318 -4.0
322 321 -4.0
324 322 -4.0
352 322 -4.0
328 325 4.0
328 326 -4.0
329 328 -4.0
330 329 4.0
332 330 -4.0
365 331 4.0
365 332 -4.0
335 333 -4.0
336 334 -4.0
336 335 -4.0
365 335 -4.0
338 336 -4.0
339 337 -4.0
339 338 -4.0
369 338 -4.0
344 342 -4.0
378 343 -4.0
378 344 -4.0
347 346 4.0
349 347 -4.0
350 348 -4.0
350 349 -4.0
354 352 -4.0
355 353 4.0
355 354 -4.0
357 355 -4.0
359 356 4.0
359 357 -4.0
361 358 4.0
361 359 -4.0
363 362 -4.0
364 362 -4.0
367 365 -4.0
369 366 -4.0
369 367 -4.0
371 368 -4.0
371 369 -4.0
372 370 -4.0
372 371 -4.0
373 372 -4.0
374 373 -4.0
376 375 -4.0
377 375 -4.0
0.0 # default value for linear coefficients in objective
244 # number of non-default linear coefficients in objective
135 2.0
136 2.0
137 2.0
138 2.0
139 2.0
140 4.0
141 2.0
142 2.0
143 4.0
144 2.0
145 2.0
146 2.0
147 2.0
148 2.0
149 2.0
150 2.0
151 2.0
152 2.0
153 2.0
154 2.0
155 4.0
156 2.0
157 2.0
158 2.0
159 4.0
160 2.0
161 2.0
162 2.0
163 2.0
164 2.0
165 2.0
166 2.0
167 2.0
168 4.0
169 2.0
170 4.0
171 2.0
172 2.0
173 2.0
174 4.0
175 -2.0
176 4.0
177 2.0
178 4.0
179 2.0
180 -2.0
181 2.0
182 2.0
183 4.0
184 2.0
185 2.0
186 2.0
187 -2.0
188 2.0
189 4.0
190 2.0
191 2.0
192 4.0
193 2.0
194 2.0
195 4.0
196 4.0
197 2.0
198 4.0
199 2.0
200 2.0
201 4.0
202 -2.0
203 -2.0
204 2.0
205 2.0
206 2.0
207 2.0
208 -2.0
209 -2.0
210 4.0
211 2.0
212 2.0
213 4.0
214 4.0
215 4.0
216 2.0
217 2.0
218 2.0
219 4.0
220 -2.0
221 2.0
222 2.0
223 2.0
224 2.0
225 -4.0
226 -2.0
227 2.0
228 2.0
229 4.0
230 4.0
231 4.0
232 -2.0
233 4.0
234 2.0
235 4.0
236 4.0
237 2.0
238 2.0
239 -2.0
240 2.0
241 2.0
242 2.0
243 2.0
244 2.0
245 2.0
246 -2.0
247 -4.0
248 -2.0
249 2.0
250 4.0
251 4.0
252 4.0
253 4.0
254 4.0
255 -2.0
256 2.0
257 4.0
258 -2.0
259 4.0
260 2.0
261 2.0
262 -2.0
263 2.0
264 2.0
265 -2.0
266 2.0
267 4.0
268 2.0
269 2.0
270 2.0
271 4.0
272 2.0
273 -4.0
274 4.0
275 2.0
276 4.0
277 2.0
278 4.0
279 4.0
280 4.0
281 -2.0
282 2.0
283 4.0
284 4.0
285 4.0
286 2.0
287 2.0
288 -2.0
289 4.0
290 2.0
291 -2.0
292 2.0
293 4.0
294 -2.0
295 2.0
296 2.0
297 -2.0
298 -2.0
299 2.0
300 -2.0
301 4.0
302 2.0
303 4.0
304 2.0
305 4.0
306 4.0
307 2.0
308 4.0
309 -2.0
310 -2.0
311 2.0
312 4.0
313 4.0
314 -2.0
315 -4.0
316 2.0
317 2.0
318 2.0
319 4.0
320 2.0
321 2.0
322 4.0
323 -2.0
324 2.0
325 -2.0
326 2.0
327 -2.0
328 2.0
329 -2.0
330 2.0
331 -2.0
332 4.0
333 2.0
334 4.0
335 2.0
336 4.0
337 4.0
338 4.0
339 4.0
340 -2.0
341 2.0
342 2.0
343 2.0
344 4.0
345 -2.0
346 -2.0
347 2.0
348 2.0
349 2.0
350 4.0
351 2.0
352 2.0
353 -2.0
354 4.0
355 2.0
356 -2.0
357 2.0
358 -2.0
359 2.0
360 -2.0
361 2.0
362 2.0
363 -2.0
364 4.0
365 2.0
366 2.0
367 2.0
368 4.0
369 4.0
370 4.0
371 4.0
372 4.0
373 2.0
374 4.0
375 2.0
376 2.0
377 4.0
378 2.0
0.0 # objective constant
1.79769313486232E+308 # value for infinity
0.0 # default variable primal value in starting point
0 # number of non-default variable primal values in starting point
0.0 # default variable bound dual value in starting point
0 # number of non-default variable bound dual values in starting point
0 # number of non-default variable names
0 # number of non-default constraint names
